2,7
4,6
6,5
8,3
10,2
12,0
14,0
16,4
18,8
21,1
23,4
25,7
27,9
30,2
32,4
34,7
37,0
39,2
41,5
43,8
46,1
48,5
50,9
53,4
55,9
58,4
61,0
63,6
66,3
69,0
71,7
74,1
74,1
74,1
74,1
74,1
74,1
74,1
74,1
74,1
74,1
74,1
74,1
74,1
74,1
74,1
74,1
74,1
74,1
74,1
74,1
74,1
74,1
74,1
74,1
74,1
74,1
74,1
74,1
74,1
74,1
74,1
0,0
0,0
0,0
